10
1 0 48
2 0 38
2 1 42
3 0 47
3 1 15
3 2 37
4 0 19
4 1 11
4 2 33
4 3 30
5 0 24
5 1 3
5 2 50
5 3 46
5 4 34
6 0 13
6 1 8
6 2 46
6 3 18
6 4 18
6 5 6
7 0 12
7 1 5
7 2 7
7 3 17
7 4 33
7 5 12
7 6 1
8 0 15
8 1 27
8 2 44
8 3 12
8 4 11
8 5 39
8 6 11
8 7 34
9 0 17
9 1 30
9 2 3
9 3 43
9 4 28
9 5 18
9 6 39
9 7 23
9 8 48
